logs/drand/feas/drand-05-110-1.lp
\ LP format - for model browsing. Use MPS format to capture full model detail.
Minimize
  p0 + p1 + p2 + p3 + p4
Subject To
 R0: x0,1_10 + x0,2_10 + x0,3_10 + x0,4_10 + x1,2_10 + x1,3_10 + x1,4_10
   + x2,3_10 + x2,4_10 + x3,4_10 = 1
 R1: x0,1_30 + x0,2_30 + x0,3_30 + x0,4_30 + x1,2_30 + x1,3_30 + x1,4_30
   + x2,3_30 + x2,4_30 + x3,4_30 = 1
 R2: x0,1_32 + x0,2_32 + x0,3_32 + x0,4_32 + x1,2_32 + x1,3_32 + x1,4_32
   + x2,3_32 + x2,4_32 + x3,4_32 = 1
 R3: x0,1_62 + x0,2_62 + x0,3_62 + x0,4_62 + x1,2_62 + x1,3_62 + x1,4_62
   + x2,3_62 + x2,4_62 + x3,4_62 = 1
 R4: x0,1_108 + x0,2_108 + x0,3_108 + x0,4_108 + x1,2_108 + x1,3_108
   + x1,4_108 + x2,3_108 + x2,4_108 + x3,4_108 = 1
 R5: x0,1_10 + x0,1_30 + x0,1_32 + x0,1_62 + x0,1_108 <= 1
 R6: x0,2_10 + x0,2_30 + x0,2_32 + x0,2_62 + x0,2_108 <= 1
 R7: x0,3_10 + x0,3_30 + x0,3_32 + x0,3_62 + x0,3_108 <= 1
 R8: x0,4_10 + x0,4_30 + x0,4_32 + x0,4_62 + x0,4_108 <= 1
 R9: x1,2_10 + x1,2_30 + x1,2_32 + x1,2_62 + x1,2_108 <= 1
 R10: x1,3_10 + x1,3_30 + x1,3_32 + x1,3_62 + x1,3_108 <= 1
 R11: x1,4_10 + x1,4_30 + x1,4_32 + x1,4_62 + x1,4_108 <= 1
 R12: x2,3_10 + x2,3_30 + x2,3_32 + x2,3_62 + x2,3_108 <= 1
 R13: x2,4_10 + x2,4_30 + x2,4_32 + x2,4_62 + x2,4_108 <= 1
 R14: x3,4_10 + x3,4_30 + x3,4_32 + x3,4_62 + x3,4_108 <= 1
 R15: p0 - p1 <= -1
 R16: - 10 x0,1_10 - p0 + p1 >= 0
 R17: 242 x0,1_10 - p0 + p1 <= 252
 R18: - 30 x0,1_30 - p0 + p1 >= 0
 R19: 242 x0,1_30 - p0 + p1 <= 272
 R20: - 32 x0,1_32 - p0 + p1 >= 0
 R21: 242 x0,1_32 - p0 + p1 <= 274
 R22: - 62 x0,1_62 - p0 + p1 >= 0
 R23: 242 x0,1_62 - p0 + p1 <= 304
 R24: - 108 x0,1_108 - p0 + p1 >= 0
 R25: 242 x0,1_108 - p0 + p1 <= 350
 R26: p0 - p2 <= -1
 R27: - 10 x0,2_10 - p0 + p2 >= 0
 R28: 242 x0,2_10 - p0 + p2 <= 252
 R29: - 30 x0,2_30 - p0 + p2 >= 0
 R30: 242 x0,2_30 - p0 + p2 <= 272
 R31: - 32 x0,2_32 - p0 + p2 >= 0
 R32: 242 x0,2_32 - p0 + p2 <= 274
 R33: - 62 x0,2_62 - p0 + p2 >= 0
 R34: 242 x0,2_62 - p0 + p2 <= 304
 R35: - 108 x0,2_108 - p0 + p2 >= 0
 R36: 242 x0,2_108 - p0 + p2 <= 350
 R37: p0 - p3 <= -1
 R38: - 10 x0,3_10 - p0 + p3 >= 0
 R39: 242 x0,3_10 - p0 + p3 <= 252
 R40: - 30 x0,3_30 - p0 + p3 >= 0
 R41: 242 x0,3_30 - p0 + p3 <= 272
 R42: - 32 x0,3_32 - p0 + p3 >= 0
 R43: 242 x0,3_32 - p0 + p3 <= 274
 R44: - 62 x0,3_62 - p0 + p3 >= 0
 R45: 242 x0,3_62 - p0 + p3 <= 304
 R46: - 108 x0,3_108 - p0 + p3 >= 0
 R47: 242 x0,3_108 - p0 + p3 <= 350
 R48: p0 - p4 <= -1
 R49: - 10 x0,4_10 - p0 + p4 >= 0
 R50: 242 x0,4_10 - p0 + p4 <= 252
 R51: - 30 x0,4_30 - p0 + p4 >= 0
 R52: 242 x0,4_30 - p0 + p4 <= 272
 R53: - 32 x0,4_32 - p0 + p4 >= 0
 R54: 242 x0,4_32 - p0 + p4 <= 274
 R55: - 62 x0,4_62 - p0 + p4 >= 0
 R56: 242 x0,4_62 - p0 + p4 <= 304
 R57: - 108 x0,4_108 - p0 + p4 >= 0
 R58: 242 x0,4_108 - p0 + p4 <= 350
 R59: p1 - p2 <= -1
 R60: - 10 x1,2_10 - p1 + p2 >= 0
 R61: 242 x1,2_10 - p1 + p2 <= 252
 R62: - 30 x1,2_30 - p1 + p2 >= 0
 R63: 242 x1,2_30 - p1 + p2 <= 272
 R64: - 32 x1,2_32 - p1 + p2 >= 0
 R65: 242 x1,2_32 - p1 + p2 <= 274
 R66: - 62 x1,2_62 - p1 + p2 >= 0
 R67: 242 x1,2_62 - p1 + p2 <= 304
 R68: - 108 x1,2_108 - p1 + p2 >= 0
 R69: 242 x1,2_108 - p1 + p2 <= 350
 R70: p1 - p3 <= -1
 R71: - 10 x1,3_10 - p1 + p3 >= 0
 R72: 242 x1,3_10 - p1 + p3 <= 252
 R73: - 30 x1,3_30 - p1 + p3 >= 0
 R74: 242 x1,3_30 - p1 + p3 <= 272
 R75: - 32 x1,3_32 - p1 + p3 >= 0
 R76: 242 x1,3_32 - p1 + p3 <= 274
 R77: - 62 x1,3_62 - p1 + p3 >= 0
 R78: 242 x1,3_62 - p1 + p3 <= 304
 R79: - 108 x1,3_108 - p1 + p3 >= 0
 R80: 242 x1,3_108 - p1 + p3 <= 350
 R81: p1 - p4 <= -1
 R82: - 10 x1,4_10 - p1 + p4 >= 0
 R83: 242 x1,4_10 - p1 + p4 <= 252
 R84: - 30 x1,4_30 - p1 + p4 >= 0
 R85: 242 x1,4_30 - p1 + p4 <= 272
 R86: - 32 x1,4_32 - p1 + p4 >= 0
 R87: 242 x1,4_32 - p1 + p4 <= 274
 R88: - 62 x1,4_62 - p1 + p4 >= 0
 R89: 242 x1,4_62 - p1 + p4 <= 304
 R90: - 108 x1,4_108 - p1 + p4 >= 0
 R91: 242 x1,4_108 - p1 + p4 <= 350
 R92: p2 - p3 <= -1
 R93: - 10 x2,3_10 - p2 + p3 >= 0
 R94: 242 x2,3_10 - p2 + p3 <= 252
 R95: - 30 x2,3_30 - p2 + p3 >= 0
 R96: 242 x2,3_30 - p2 + p3 <= 272
 R97: - 32 x2,3_32 - p2 + p3 >= 0
 R98: 242 x2,3_32 - p2 + p3 <= 274
 R99: - 62 x2,3_62 - p2 + p3 >= 0
 R100: 242 x2,3_62 - p2 + p3 <= 304
 R101: - 108 x2,3_108 - p2 + p3 >= 0
 R102: 242 x2,3_108 - p2 + p3 <= 350
 R103: p2 - p4 <= -1
 R104: - 10 x2,4_10 - p2 + p4 >= 0
 R105: 242 x2,4_10 - p2 + p4 <= 252
 R106: - 30 x2,4_30 - p2 + p4 >= 0
 R107: 242 x2,4_30 - p2 + p4 <= 272
 R108: - 32 x2,4_32 - p2 + p4 >= 0
 R109: 242 x2,4_32 - p2 + p4 <= 274
 R110: - 62 x2,4_62 - p2 + p4 >= 0
 R111: 242 x2,4_62 - p2 + p4 <= 304
 R112: - 108 x2,4_108 - p2 + p4 >= 0
 R113: 242 x2,4_108 - p2 + p4 <= 350
 R114: p3 - p4 <= -1
 R115: - 10 x3,4_10 - p3 + p4 >= 0
 R116: 242 x3,4_10 - p3 + p4 <= 252
 R117: - 30 x3,4_30 - p3 + p4 >= 0
 R118: 242 x3,4_30 - p3 + p4 <= 272
 R119: - 32 x3,4_32 - p3 + p4 >= 0
 R120: 242 x3,4_32 - p3 + p4 <= 274
 R121: - 62 x3,4_62 - p3 + p4 >= 0
 R122: 242 x3,4_62 - p3 + p4 <= 304
 R123: - 108 x3,4_108 - p3 + p4 >= 0
 R124: 242 x3,4_108 - p3 + p4 <= 350
Bounds
Binaries
 x0,1_10 x0,1_30 x0,1_32 x0,1_62 x0,1_108 x0,2_10 x0,2_30 x0,2_32 x0,2_62
 x0,2_108 x0,3_10 x0,3_30 x0,3_32 x0,3_62 x0,3_108 x0,4_10 x0,4_30 x0,4_32
 x0,4_62 x0,4_108 x1,2_10 x1,2_30 x1,2_32 x1,2_62 x1,2_108 x1,3_10 x1,3_30
 x1,3_32 x1,3_62 x1,3_108 x1,4_10 x1,4_30 x1,4_32 x1,4_62 x1,4_108 x2,3_10
 x2,3_30 x2,3_32 x2,3_62 x2,3_108 x2,4_10 x2,4_30 x2,4_32 x2,4_62 x2,4_108
 x3,4_10 x3,4_30 x3,4_32 x3,4_62 x3,4_108
Generals
 p0 p1 p2 p3 p4
End
