logs/drand/feas/drand-05-110-1.sol
# Objective value = 210
x0,1_10 1
x0,1_30 0
x0,1_32 0
x0,1_62 0
x0,1_108 0
x0,2_10 0
x0,2_30 1
x0,2_32 0
x0,2_62 0
x0,2_108 0
x0,3_10 0
x0,3_30 0
x0,3_32 0
x0,3_62 1
x0,3_108 0
x0,4_10 0
x0,4_30 0
x0,4_32 0
x0,4_62 0
x0,4_108 1
x1,2_10 0
x1,2_30 0
x1,2_32 0
x1,2_62 0
x1,2_108 0
x1,3_10 0
x1,3_30 0
x1,3_32 0
x1,3_62 0
x1,3_108 0
x1,4_10 0
x1,4_30 0
x1,4_32 0
x1,4_62 0
x1,4_108 0
x2,3_10 0
x2,3_30 0
x2,3_32 1
x2,3_62 0
x2,3_108 0
x2,4_10 0
x2,4_30 0
x2,4_32 0
x2,4_62 0
x2,4_108 0
x3,4_10 0
x3,4_30 0
x3,4_32 0
x3,4_62 0
x3,4_108 0
p0 0
p1 10
p2 30
p3 62
p4 108
