logs/drand/feas/drand-05-110-1.log

Gurobi 8.1.1 (win64) logging started 11/24/19 12:28:30

Changed value of parameter LogFile to logs/drand/feas/drand-05-110-1.log
   Prev: gurobi.log  Default: 
Changed value of parameter LogToConsole to 0
   Prev: 1  Min: 0  Max: 1  Default: 1
Changed value of parameter TimeLimit to 3600.0
   Prev: 1e+100  Min: 0.0  Max: 1e+100  Default: 1e+100
Optimize a model with 185 rows, 81 columns and 630 nonzeros
Variable types: 0 continuous, 81 integer (75 binary)
Coefficient statistics:
  Matrix range     [1e+00, 2e+02]
  Objective range  [1e+00, 1e+00]
  Bounds range     [1e+00, 1e+00]
  RHS range        [1e+00, 4e+02]
Presolve time: 0.00s
Presolved: 185 rows, 81 columns, 630 nonzeros
Variable types: 0 continuous, 81 integer (75 binary)

Root relaxation: objective 2.960000e+01, 98 iterations, 0.00 seconds

    Nodes    |    Current Node    |     Objective Bounds      |     Work
 Expl Unexpl |  Obj  Depth IntInf | Incumbent    BestBd   Gap | It/Node Time

     0     0   29.60000    0   33          -   29.60000      -     -    0s
H    0     0                     215.0000000   29.60000  86.2%     -    0s
H    0     0                     214.0000000   29.60000  86.2%     -    0s
     0     0   46.47183    0   21  214.00000   46.47183  78.3%     -    0s
     0     0   46.62624    0   20  214.00000   46.62624  78.2%     -    0s
     0     0   56.95250    0   20  214.00000   56.95250  73.4%     -    0s
     0     0   59.59606    0   21  214.00000   59.59606  72.2%     -    0s
     0     0   59.70936    0   22  214.00000   59.70936  72.1%     -    0s
     0     0   61.65506    0   25  214.00000   61.65506  71.2%     -    0s
     0     0   61.72007    0   22  214.00000   61.72007  71.2%     -    0s
     0     0   61.78859    0   34  214.00000   61.78859  71.1%     -    0s
     0     0   61.78859    0   34  214.00000   61.78859  71.1%     -    0s
     0     0   64.96546    0   23  214.00000   64.96546  69.6%     -    0s
H    0     0                     213.0000000   64.96546  69.5%     -    0s
     0     0   64.98073    0   23  213.00000   64.98073  69.5%     -    0s
     0     0   64.98073    0   23  213.00000   64.98073  69.5%     -    0s
     0     0   64.98073    0   25  213.00000   64.98073  69.5%     -    0s
     0     0   64.98073    0   26  213.00000   64.98073  69.5%     -    0s
     0     0   64.98073    0   27  213.00000   64.98073  69.5%     -    0s
     0     0   64.98073    0   27  213.00000   64.98073  69.5%     -    0s
     0     0   64.98073    0   36  213.00000   64.98073  69.5%     -    0s
     0     0  119.66836    0   16  213.00000  119.66836  43.8%     -    0s
     0     0  120.09626    0   16  213.00000  120.09626  43.6%     -    0s
     0     0  122.93371    0   23  213.00000  122.93371  42.3%     -    0s
     0     0  125.69435    0   18  213.00000  125.69435  41.0%     -    0s
     0     0  125.84611    0   18  213.00000  125.84611  40.9%     -    0s
     0     0  126.24567    0   20  213.00000  126.24567  40.7%     -    0s
H    0     0                     210.0000000  126.24567  39.9%     -    0s
     0     0  126.26084    0   20  210.00000  126.26084  39.9%     -    0s
     0     0  126.74653    0   22  210.00000  126.74653  39.6%     -    0s
     0     0  126.74653    0   22  210.00000  126.74653  39.6%     -    0s
     0     0  126.74653    0   22  210.00000  126.74653  39.6%     -    0s
     0     1  126.74653    0   21  210.00000  126.74653  39.6%     -    0s
*   99    34              21     198.0000000  146.51044  26.0%   4.8    0s
*  177    17               9     188.0000000  149.00000  20.7%   4.9    0s

Cutting planes:
  Gomory: 15
  Implied bound: 11
  MIR: 11

Explored 267 nodes (1899 simplex iterations) in 0.20 seconds
Thread count was 4 (of 4 available processors)

Solution count 6: 188 198 210 ... 215

Optimal solution found (tolerance 1.00e-04)
Best objective 1.880000000000e+02, best bound 1.880000000000e+02, gap 0.0000%

Gurobi 8.1.1 (win64) logging started 11/24/19 12:28:31

Changed value of parameter LogFile to logs/drand/feas/drand-05-110-1.log
   Prev: gurobi.log  Default: 
Changed value of parameter LogToConsole to 0
   Prev: 1  Min: 0  Max: 1  Default: 1
Changed value of parameter TimeLimit to 3600.0
   Prev: 1e+100  Min: 0.0  Max: 1e+100  Default: 1e+100
Optimize a model with 125 rows, 55 columns and 420 nonzeros
Variable types: 0 continuous, 55 integer (50 binary)
Coefficient statistics:
  Matrix range     [1e+00, 2e+02]
  Objective range  [1e+00, 1e+00]
  Bounds range     [1e+00, 1e+00]
  RHS range        [1e+00, 4e+02]
Presolve time: 0.00s
Presolved: 125 rows, 55 columns, 420 nonzeros
Variable types: 0 continuous, 55 integer (50 binary)

Root relaxation: objective 3.200000e+01, 54 iterations, 0.00 seconds

    Nodes    |    Current Node    |     Objective Bounds      |     Work
 Expl Unexpl |  Obj  Depth IntInf | Incumbent    BestBd   Gap | It/Node Time

     0     0   32.00000    0   35          -   32.00000      -     -    0s
     0     0   55.58228    0   19          -   55.58228      -     -    0s
     0     0   55.66938    0   19          -   55.66938      -     -    0s
     0     0   59.74439    0   18          -   59.74439      -     -    0s
H    0     0                     272.0000000   59.74439  78.0%     -    0s
     0     0   63.16778    0   18  272.00000   63.16778  76.8%     -    0s
     0     0   66.47834    0   17  272.00000   66.47834  75.6%     -    0s
     0     0   66.51088    0   17  272.00000   66.51088  75.5%     -    0s
     0     0   70.71403    0   16  272.00000   70.71403  74.0%     -    0s
     0     0   71.83560    0   19  272.00000   71.83560  73.6%     -    0s
     0     0   71.83560    0   19  272.00000   71.83560  73.6%     -    0s
     0     0   73.49398    0   18  272.00000   73.49398  73.0%     -    0s
     0     0   73.51033    0   18  272.00000   73.51033  73.0%     -    0s
     0     0   79.71990    0   24  272.00000   79.71990  70.7%     -    0s
     0     0   80.00678    0   25  272.00000   80.00678  70.6%     -    0s
     0     0   80.24704    0   22  272.00000   80.24704  70.5%     -    0s
     0     0   80.27046    0   22  272.00000   80.27046  70.5%     -    0s
     0     0   81.88742    0   25  272.00000   81.88742  69.9%     -    0s
H    0     0                     222.0000000   81.88742  63.1%     -    0s
     0     0   82.23922    0   34  222.00000   82.23922  63.0%     -    0s
     0     0   82.27708    0   31  222.00000   82.27708  62.9%     -    0s
     0     0   82.27756    0   30  222.00000   82.27756  62.9%     -    0s
     0     0   87.17533    0   20  222.00000   87.17533  60.7%     -    0s
     0     0   87.95763    0   19  222.00000   87.95763  60.4%     -    0s
     0     0   88.07446    0   21  222.00000   88.07446  60.3%     -    0s
     0     0   88.07446    0   21  222.00000   88.07446  60.3%     -    0s
     0     0   98.98105    0   20  222.00000   98.98105  55.4%     -    0s
     0     0   99.10115    0   20  222.00000   99.10115  55.4%     -    0s
     0     0   99.11102    0   21  222.00000   99.11102  55.4%     -    0s
     0     0   99.30118    0   17  222.00000   99.30118  55.3%     -    0s
     0     0   99.30924    0   19  222.00000   99.30924  55.3%     -    0s
     0     0   99.30924    0   21  222.00000   99.30924  55.3%     -    0s
     0     0   99.30924    0   18  222.00000   99.30924  55.3%     -    0s
H    0     0                     212.0000000   99.30924  53.2%     -    0s
     0     2   99.30924    0   18  212.00000   99.30924  53.2%     -    0s
*  146    13              13     210.0000000  171.00000  18.6%   6.9    0s

Cutting planes:
  Gomory: 10
  Implied bound: 1
  MIR: 17

Explored 198 nodes (1698 simplex iterations) in 0.11 seconds
Thread count was 4 (of 4 available processors)

Solution count 4: 210 212 222 272 

Optimal solution found (tolerance 1.00e-04)
Best objective 2.100000000000e+02, best bound 2.100000000000e+02, gap 0.0000%
